Maximize

27.5 b0 + 22.5 b1 + 67.0 b2 + 219.5 b3 + 8 b4 + 10 b5 + 18.5 b6 + 8 b7 + 10 b8


Subject to

\ === tcfg constraints ===
dSta_0 = 1
b0 - dSta_0 = 0
b0 - d0_1 = 0
b1 - d0_1 = 0
b1 - d1_2 = 0
b2 - d1_2 = 0
b2 - d2_6 - d2_3 = 0
b3 - d2_3 = 0
b3 - d3_4 = 0
b4 - d3_4 = 0
b4 - d4_5 = 0
b5 - d4_5 = 0
b6 - d2_6 = 0
b6 - d6_7 = 0
b7 - d6_7 = 0
b7 - d7_8 = 0
b8 - d7_8 = 0


\ === header constraints ===



\ === context constraints ===



\ === inst cache constraints ===



\ === data cache constraints ===



Generals


b0
b1
b2
b3
b4
b5
b6
b7
b8
d0_1
d1_2
d2_3
d2_6
d3_4
d4_5
d6_7
d7_8
dSta_0


End
\ total cons: 17    total vars: 18
